321609.0
3345
0 1 3 7 8 11 12 13 16 17 20 21 23 26 28 29 30 31 35 37 40 41 42 43 44 46 47 48 50 51 52 53 56 58 60 61 63 64 65 66 67 68 69 71 72 73 74 75 76 78 79 81 82 84 86 87 89 90 91 94 95 96 97 98 99 100 102 103 104 105 106 107 108 110 113 114 115 117 118 119 120 121 122 124 126 127 128 130 132 133 134 135 136 137 138 139 141 142 144 145 146 147 148 149 150 151 152 154 156 157 159 160 161 162 163 164 165 167 173 174 176 177 178 180 181 182 183 185 186 187 189 192 193 194 198 